200
1000
699
698
695
695
695
693
677
665
663
658
656
654
647
644
643
643
639
638
636
630
622
618
613
613
613
610
608
599
599
598
597
597
597
592
591
587
587
584
580
577
576
570
566
565
565
564
561
558
556
553
550
542
542
539
535
533
532
531
531
529
528
528
526
525
523
519
519
512
506
500
494
494
494
491
490
486
485
484
482
482
475
472
460
458
436
435
433
430
428
427
426
423
415
409
407
404
402
398
396
395
392
388
384
373
372
356
356
355
353
352
345
332
332
329
318
316
315
307
307
306
292
289
288
287
286
285
285
283
283
282
280
279
272
268
263
261
256
250
250
246
245
244
243
237
233
223
214
213
212
211
211
208
203
199
191
186
184
176
175
166
158
157
153
146
144
143
143
142
135
131
123
123
122
120
120
119
115
114
111
107
105
101
99
95
91
84
67
65
47
45
38
32
30
13
11
10
8
7
6
4
